; benchmark generated from python API
(set-info :status unknown)
(declare-datatypes ((RealState 0)) (((RMk1 (rval1 Real)) (RMk2 (rval2 Real)))))
 (assert
 (forall ((|v11:0| Real) )(exists ((|v10:1_st| RealState) (val!2406 Real) )(forall ((|v9:2| Real) )(exists ((|v8:3_st| RealState) (val!2407 Real) )(forall ((|v7:4| Real) )(exists ((|v6:5_st| RealState) (val!2408 Real) )(forall ((|v5:6| Real) )(exists ((|v4:7_st| RealState) (val!2409 Real) )(forall ((|v3:8| Real) )(exists ((|v2:9_st| RealState) (val!2410 Real) )(forall ((|v1:10| Real) )(exists ((|v0:11_st| RealState) (val!2411 Real) )(let ((?x93 (rval2 |v10:1_st|)))
 (let ((?x706 (* 8.0 ?x93)))
 (let ((?x3116 (rval2 |v6:5_st|)))
 (let ((?x155 (* 5.0 ?x3116)))
 (let (($x2122 (<= (+ (+ (+ (* (- 14.0) (rval2 |v8:3_st|)) (* 0.0 |v3:8|)) ?x155) ?x706) 8.0)))
 (let ((?x871 (- 12.0)))
 (let ((?x2263 (+ (+ (* 10.0 (rval2 |v8:3_st|)) (* (- 15.0) ?x3116)) (* (- 18.0) |v5:6|))))
 (let ((?x884 (rval2 |v2:9_st|)))
 (let ((?x1271 (* 3.0 ?x884)))
 (let ((?x939 (+ (+ (* (- 5.0) ?x93) (* (- 11.0) (rval2 |v4:7_st|))) (* 17.0 (rval2 |v4:7_st|)))))
 (let ((?x665 (- 8.0)))
 (let ((?x524 (* 13.0 ?x3116)))
 (let ((?x208 (+ (+ (+ (* 11.0 |v9:2|) (* 10.0 (rval2 |v4:7_st|))) (* (- 11.0) ?x884)) ?x524)))
 (let ((?x1991 (+ (+ (+ (* (- 11.0) |v3:8|) (* (- 3.0) |v3:8|)) (* 7.0 ?x3116)) (* (- 16.0) |v3:8|))))
 (let ((?x966 (* 16.0 |v11:0|)))
 (let ((?x767 (+ (+ (* (- 14.0) |v1:10|) (* (- 2.0) (rval2 |v8:3_st|))) (* (- 15.0) |v7:4|))))
 (let (($x1208 (or (or (<= (+ ?x767 ?x966) 18.0) (<= ?x1991 10.0)) (and (<= ?x208 ?x665) (<= (+ ?x939 ?x1271) 4.0)))))
 (let ((?x1079 (+ (+ (* (- 9.0) ?x93) (* (- 13.0) ?x3116)) (* (- 17.0) |v1:10|))))
 (let ((?x1159 (- 11.0)))
 (let ((?x339 (+ (+ (* (- 15.0) (rval2 |v0:11_st|)) (* (- 10.0) (rval2 |v8:3_st|))) (* (- 1.0) |v3:8|))))
 (let (($x1920 (and (<= (+ ?x339 (* (- 6.0) |v3:8|)) ?x1159) (<= (+ ?x1079 (* 0.0 (rval2 |v8:3_st|))) 14.0))))
 (let ((?x1124 (+ (+ (* 19.0 |v7:4|) (* (- 5.0) (rval2 |v4:7_st|))) (* (- 1.0) ?x93))))
 (let (($x2968 (or (and (or (<= (+ ?x1124 (* ?x871 (rval2 |v0:11_st|))) 17.0) $x1920) $x1208) (<= (+ ?x2263 (* 12.0 |v3:8|)) ?x871))))
 (let ((?x1845 (- 4.0)))
 (let ((?x485 (+ (+ (* 19.0 (rval2 |v4:7_st|)) (* (- 9.0) |v9:2|)) (* ?x1159 (rval2 |v0:11_st|)))))
 (let ((?x2871 (- 18.0)))
 (let ((?x1663 (* 19.0 ?x884)))
 (let ((?x1842 (+ (+ (+ (* 8.0 |v7:4|) (* (- 15.0) |v9:2|)) (* (- 1.0) |v1:10|)) ?x1663)))
 (let ((?x2951 (+ (+ (+ (* 19.0 |v5:6|) (* (- 14.0) |v1:10|)) (* 14.0 |v7:4|)) (* ?x1845 (rval2 |v0:11_st|)))))
 (let (($x2673 (or (<= ?x2951 16.0) (and (<= ?x1842 ?x2871) (<= (+ ?x485 (* 4.0 |v7:4|)) ?x1845)))))
 (let ((?x1037 (+ (+ (+ ?x1271 (* 19.0 |v9:2|)) (* (- 15.0) (rval2 |v0:11_st|))) (* 20.0 |v7:4|))))
 (let ((?x2631 (- 9.0)))
 (let ((?x417 (+ (+ (+ (* 13.0 |v1:10|) (* 13.0 |v3:8|)) (* (- 7.0) |v9:2|)) |v9:2|)))
 (let ((?x2720 (- 7.0)))
 (let ((?x2024 (rval2 |v4:7_st|)))
 (let ((?x116 (- 5.0)))
 (let ((?x568 (* ?x116 ?x2024)))
 (let ((?x1390 (+ (+ (+ (* (- 15.0) ?x3116) (* 7.0 (rval2 |v0:11_st|))) (* 14.0 |v9:2|)) ?x568)))
 (let (($x1378 (or (and (<= ?x1390 ?x2720) (and (<= ?x417 ?x2631) (<= ?x1037 18.0))) $x2673)))
 (let ((?x1502 (- 19.0)))
 (let ((?x1982 (* 17.0 ?x884)))
 (let ((?x592 (+ (+ (+ (* 11.0 (rval2 |v8:3_st|)) (* 14.0 ?x3116)) (* (- 1.0) |v9:2|)) ?x1982)))
 (let (($x1423 (not (= |v0:11_st| (RMk1 val!2411)))))
 (let (($x937 (not (= |v2:9_st| (RMk1 val!2410)))))
 (let (($x1277 (not (= |v4:7_st| (RMk1 val!2409)))))
 (let (($x1151 (not (= |v6:5_st| (RMk1 val!2408)))))
 (let (($x1011 (not (= |v8:3_st| (RMk1 val!2407)))))
 (let (($x439 (not (= |v10:1_st| (RMk1 val!2406)))))
 (and $x439 $x1011 $x1151 $x1277 $x937 $x1423 (or (and (and (<= ?x592 ?x1502) $x1378) $x2968) $x2122)))))))))))))))))))))))))))))))))))))))))))))))))))
 )
 )
 )
 )
 )
 )
 )
 )
 )
 )
 )
 )
(check-sat)
